Reproduction of the Original Problem/Instances/S1-15/S1-5-15-3-s.txt
     100      15    0.05
       3       1       2       1       3       3       1       2       3       2       3       2       1       1       3       2       4       3      14       2       4      14      11       3       1      15       9      15       9       6       1
       2       1       1       1       3       3       3       1       2       2       1       1       1       3       1       7      10      11      14      13      15      13       2      14       4      15      12       7      10      16       1
       3       3       2       3       3       2       3       1       1       2       2       2       3       2       1      16       7      14      16       4       6      15       1       0       3       1       2      11      12      10       1
       2       3       3       1       2       3       3       3       2       2       2       1       3       3       2       9       7       0       7      10       3       1      16       0       5       1      14       0       4      13       3
       1       1       3       2       3       3       1       2       1       2       2       1       3       1       2       0       7       5       1      11       5      12       4       1       2      16      13       6       3      12       3
       2       3       1       3       2       2       1       3       2       3       1       3       3       1       1       4      15      11       6       5       5      12      10       0       5       1       3      12      16      15       2
       1       1       2       3       1       3       3       2       3       3       3       3       1       3       3       4      13      13      12      16      11      16       1       5      12      13      11      15      12       2       1
       2       3       3       1       2       2       3       3       3       1       3       1       2       3       2      10       8       9       3       0      13      15       8       6       9       2      13       9      15       6       3
       2       3       2       2       1       2       3       3       3       3       2       3       3       3       3      11       0       4       0      11       7       0      11       4      10       5       2      13       4      15       1
       3       3       2       2       3       3       2       2       1       1       3       2       1       1       3       7       5      13      14       4      13       3       8      11       6       1      13      10       3       4       2
       3       2       1       3       3       3       2       2       3       2       3       1       2       3       1       7       0       0       3      14       6      15       7       4       4       7      13       6      11      12       3
       3       1       1       2       2       3       3       1       3       2       2       1       1       3       2      13       4      14      16      16       8       7      15      15      10      12      12      13       4       1       2
       2       2       1       1       2       1       2       3       1       3       2       1       3       1       2      16      16      14      13       4      10      15      11       4      16       2       7       1       5      14       1
       2       1       2       1       2       2       1       2       2       1       1       3       1       1       1       5      12       3       2       7       5       5      12      11       0       3       9      14       8      16       3
       2       3       2       2       3       1       1       3       3       1       2       2       2       3       3       1       0       8       8      11      12       8      15       1      14      16      15       7       7       9       3
       2       3       2       2       2       3       1       2       1       1       1       1       2       2       2       1       4       7      12       4      15      13       7      14      11       7      15       7       0      11       3
       3       3       3       3       1       3       2       1       2       3       3       1       3       3       3      11      15      14       1      14      15       2      11       3      15       6      14       3      15      12       3
       1       3       1       3       2       1       2       2       3       2       3       2       1       1       2      13       9      13       0      11      15      10      15       9       9      13      16       7       0       0       1
       1       1       1       3       3       1       1       2       2       3       1       2       3       3       2      12      11       5      10       6      13      10      13       9      11      14      12      14       2      14       2
       2       2       3       2       1       1       3       3       1       1       2       1       3       2       2       4       0      16       5      14       6       4       4      13       5      13       3       3       3       0       3
       3       2       3       3       3       2       2       2       2       2       3       3       1       1       3       2       4      14       8      11       5       0      14       4      15       4      11      16       4       6       3
       2       1       2       1       1       2       2       2       3       3       3       3       2       1       1       5      13       4      12      15       8       4       0      15       9       7      10      11       1       4       3
       3       2       3       1       1       1       3       1       2       3       2       3       3       2       3       8       2      11       0      11       1       1       6       3       3      13       6      12      13      10       3
       3       2       3       3       1       3       2       3       2       2       3       3       2       2       2      15       2       4       4       0       2       7       5       3       2      14       3       8       6       5       2
       2       2       1       1       1       1       1       3       3       3       3       2       3       1       2      15       6       6       6       7       6       3      13      13      12       2       2       3       9       7       2
       2       1       1       3       3       2       2       3       2       3       2       1       1       1       1       9      15       6      10       7       8       5       5      11       6      16       6      12      10       2       3
       3       1       3       2       3       1       1       2       3       3       1       3       2       1       3      14      10       6       6       9       6       7      15       6       9       9       3       2       0       2       2
       1       2       1       1       3       2       3       2       2       1       2       1       3       2       2       3       4       9      12      15       2      10       4      13       5       9       8       4       7      13       3
       3       1       3       3       1       3       3       1       2       3       3       3       1       2       1       5       7      12      13       7      16       8      12       4      12      10      12       3      13       1       2
       3       1       1       2       2       3       3       2       3       1       3       3       1       3       1      13       4      11      11       5      11      12       0      13      11      13       3       5       2      16       3
       1       2       3       3       2       3       1       2       3       2       2       2       2       3       2       6      16       2       9       1      10       3      16      15      14      15       0       6      15       9       1
       3       2       2       3       2       1       1       3       2       1       3       3       3       3       2       5       4      13      13      11      15      12       6      16      15       2       8      14       1       4       2
       1       3       1       2       3       3       2       3       2       1       3       1       1       2       1       0       1      15       1       9       2       8       4       3      11       4      14       0       4      11       2
       1       3       1       3       2       3       3       3       2       3       3       1       2       1       2       2      13      11      16       7       9       4       5      13       1       3      11       3       5      15       2
       3       3       3       1       3       1       2       3       2       2       3       1       1       1       3      16      14       1       1      11       5       6       1       4       2      16       8       3       8      10       2
       2       3       3       3       3       3       3       3       1       1       2       3       2       2       2      15      15      10       1       4      11       6       4       3       4      15      16       6       4       3       1
       3       2       3       2       1       1       1       1       1       2       3       2       3       1       2      15       0       0      12       3       1       3       2       1       0       1       7       1      10       5       1
       2       1       1       2       3       2       2       1       1       3       2       2       2       3       3      13      11       8       2      13      15       4      13      15       3       0      11       9      12      15       2
       2       2       3       1       2       2       2       3       1       1       1       2       1       3       2       4       3       2       0       1      13       8      10      10      14       4       6       4       2      11       1
       3       2       1       2       2       3       3       1       1       1       3       2       2       2       2       2      16      11       0      16       8      15      14       2       6      13       6      15      12       9       2
       1       1       1       2       1       3       3       3       2       3       2       3       3       3       3      16       3      12       8      15      15       2      11       0      16       9      15      16      12       7       2
       1       2       2       2       2       1       2       3       3       3       1       2       2       3       3       1       9      12       2      14      13      16       5      14      13       0       4       5      12       7       3
       3       1       3       1       3       1       2       2       3       2       1       2       2       2       3      14      15      14       2      16       9       4      11       4      12       5      13      11      11      14       1
       3       2       3       3       1       2       3       3       1       1       1       2       2       2       2       3       6       1      11       2      13      14      12       7       9       8       3      16      12       2       3
       3       2       1       3       2       3       2       3       3       3       3       3       3       2       1       7       9      15      16       4       7      15       3      16       1       7       8       3       7       9       1
       1       1       3       3       3       3       1       3       1       2       3       2       1       2       1       9      14       3      14       9       3       2       6       8       0       7       1       2      10       3       3
       2       2       1       2       2       1       1       2       2       1       1       2       2       2       1       0       2      12       9       3      11       7      13       6      12      16       3       2      14       8       1
       3       2       2       1       3       2       2       3       1       3       3       3       1       2       1       3       6       9       3       5       8       1      13       5       8       6       0       8       4       1       2
       2       1       3       1       1       1       2       2       2       1       2       1       1       3       1      15      16       7       8       3      13       1       2      15       2       7       9       8      13       8       2
       2       3       1       3       1       2       3       3       2       1       3       1       2       3       3       9       7      13       2       8       2      16      15       1       5       1       2       4       5       3       1
       2       3       1       3       2       3       2       2       1       3       3       2       1       3       3       9       9       7      11      11      11      10       7       6       0       6       6       5      12       9       3
       1       1       3       2       3       1       2       2       3       3       3       1       1       1       2       3       5       8      16       3       9       5       4      11      14       2      16       9       6       2       2
       3       2       2       1       1       3       2       1       1       2       2       1       3       2       1       0       9      13       8       6       3       7       9       7       9      12       5       8      13       0       3
       1       1       1       3       2       2       1       2       2       3       3       2       3       2       2      13       4       1      10       3       4       0       2       3       8       4      15      12       9       9       3
       3       2       1       3       2       1       1       2       1       3       1       1       1       1       3      11      15      12       0       4       0       4       7      15      11      16       3       2       4      14       1
       2       2       3       2       3       1       2       1       3       1       1       2       3       2       1      14       6       6       2      10       3       4      11       9       9       2       8       5      14       6       3
       2       1       3       1       3       3       3       1       3       3       1       2       1       1       2       5      15       4       8      16       6      10      11      14      16       3      13       5      15      12       3
       2       1       3       2       1       2       2       2       3       2       2       1       1       1       3      14       6       1       1       9       1      13       5       5      15       4       4       6      11      11       3
       2       2       2       2       2       3       2       3       2       3       3       2       3       3       3      11      10       4       7      12       0       5       6       5       9      12       4      11       9      10       3
       2       3       2       2       3       2       1       3       3       1       3       1       2       3       2       8      13      12       6       0      16      13       0      15      10       8       4      15       5       5       2
       1       1       1       3       3       1       3       1       3       1       1       3       3       2       2      16      16      14       8       0       7      12      14       7      10       2      10       3       7       5       2
       2       3       2       2       2       3       3       3       2       3       2       1       2       1       1       6       1      12       6      13      16      16       1       2      11      13      13       0       9       0       2
       2       2       3       3       3       2       1       1       2       2       3       2       2       2       2       0       8       4      16       4      11       9      16       0       6       0       8       7      16      12       3
       1       2       2       3       2       1       3       2       3       1       1       1       1       2       1      10       0       5      13       7       9       0       5      12       1       7      15      14       1      16       3
       1       2       3       1       3       2       3       2       2       2       3       2       1       2       3       1       0       7      12       6       2      11      15      14      14       3       5       5       2       7       2
       1       1       1       2       1       1       3       1       1       2       1       2       1       1       3      10       8       9      10      12       8       4       0       8      14       0      15       6      15      15       2
       1       3       3       3       1       1       3       3       1       3       2       2       2       2       1       6       2       1      11       2       5      10       8      16       6       4       2      10      11       7       1
       2       3       2       1       3       3       3       3       2       3       3       1       2       3       2      12      16       2       1      16       5       8      14       0      16      12       6       4      13       4       1
       2       1       3       2       1       2       1       3       1       3       1       2       2       1       1       2       3       6       7       2       6       4       7      16      14       7       4       5      11       5       3
       1       1       1       1       3       2       1       1       1       1       3       2       3       2       1      16       9       3       2       9      13      12      11      10       5      15      11      14       3      10       3
       3       3       1       1       3       1       1       2       1       3       3       3       2       2       1      12       4       5       2      15       7       6      13      11       6      14       2       9      12      14       2
       1       3       1       2       1       2       2       2       1       1       2       3       1       1       3      15      16      13       3       5       7      11       2       5      16      14      10      13       6      14       1
       1       2       1       1       2       3       3       2       2       3       3       1       1       1       2       9       1       8       1       8       1       1      13       2       8       0       6       6       2       0       1
       2       1       1       2       3       1       3       2       1       1       3       3       1       3       2      12      16       3       2      15      12       6       9       0       5      11      10      11       4       5       1
       1       2       3       3       2       2       2       2       3       1       3       2       3       3       3       5       0       0      14       9       7      14      10       0       0       8       0      11       4      13       1
       2       1       2       3       2       3       2       3       3       2       3       2       2       1       2      14      10       4       4      12       8       0      10       8      12       0       5       6       6       7       1
       3       3       3       2       2       2       2       1       3       2       1       3       2       2       1       5      15       9       6       9      11       9       6       4      11      16      14       6       0       3       3
       1       1       1       2       1       2       3       1       3       2       2       2       2       2       3      13      14       4      11       3      11      14       8       0       2       6       5      13       7      11       1
       1       2       1       2       1       2       1       1       1       1       2       3       1       1       1       9       5       3       3       6       3       2      16      15      12      13       8      15      13       5       3
       1       2       2       2       2       2       1       1       3       2       1       2       3       3       1       7      12       3      16       1      11      14      15       7       8       9      13       9       8      10       1
       1       2       3       3       3       1       1       3       3       2       3       2       2       1       2       0       0      10      12       0      11       0      10       5      13       4       7       5      15      10       2
       1       1       2       2       1       3       2       1       1       1       2       2       1       1       2       8      13       9       6       1      10       4      15       1       8      15      15       1      12       6       3
       1       3       3       3       3       2       2       3       2       2       1       1       1       2       3       4      16      11      11       1      12       4      14       2      16       0       1       7       7       7       2
       1       3       1       1       2       2       3       2       2       2       1       2       1       1       3      10       4       5      11       1      15       8       8       8      12       5       3       1       1       5       1
       3       1       3       2       3       1       3       1       1       3       2       1       2       2       2      13      12      12      10      14      11       4      15       8      11      16      14       5       7       3       1
       1       1       2       1       1       1       1       1       1       2       1       1       1       1       2      10       6       8      13      10       0      13       5      14       1       4      13       7       8       5       3
       1       3       3       2       1       1       3       3       1       3       3       2       3       2       1       0      11       1      16      16       0       5      14      16      16       2      16       9       4       2       2
       2       1       2       3       2       2       2       3       1       3       3       3       2       3       1       3      15       5      14       3       4       1       6       9       6      11      11      11       1       3       3
       3       2       2       1       1       2       1       1       1       3       2       1       1       3       2      11       1       6       3      10       0      12      11      16       1      15      12       6      14       3       3
       1       2       1       3       2       1       1       2       1       2       3       2       1       2       2      14      12       8       6      13      10       6       5       2       8       8      11       4      14      12       2
       2       1       1       3       1       3       1       2       2       1       3       3       2       1       2       4      10      12       2       2       2       9      15       9      15       8       5       8       0       8       3
       3       3       3       1       2       3       1       2       3       2       1       1       1       3       3      16      10       1       5       4      10      16      12       5       6      15      15       9       1       3       3
       3       3       1       2       3       1       1       2       3       1       1       3       1       3       3      15      15      13      11       7       6       0      14      12       3      13       3       3      16       0       3
       3       2       1       1       1       3       2       3       1       2       1       1       1       3       1      10       8       4      14      10      15       7      13       9       9       2      12       4       8      13       1
       2       3       1       1       2       1       3       3       2       1       1       1       2       2       3      14       9       8       6       5      14      13      14       9      15      15       8       9      14      14       3
       3       2       3       3       3       2       2       1       1       3       3       1       1       3       3      16       0       9      15       9       9      15      12       8       3      11       9      12       4       7       3
       2       2       3       3       3       1       3       3       1       2       3       3       2       3       2      16       7       7       5       6      16      10       3      16       1      14      12       7      16       2       1
       2       1       3       3       1       1       1       2       3       3       3       1       2       1       3       0       1       1       3       4       5       2      15       4       6      12       7       7       1       1       3
       1       2       2       3       2       1       3       3       1       1       1       2       2       2       2      16       6       4       3       5      13       1       4      14      13      16      11       7       5       9       1
       1       3       3       1       3       1       3       1       1       1       2       2       1       1       1       0      12      11       0      12      11       0      11       0       5      14       2      13      13      14       3
      15      15      14      20      23      17      25      17      22      14      17      24      17      14      18
      28      28      56      56      56      28      56      56      28      56      56      28      28      56      56
      71      71      41      88      82      82     100      89     109      69      92     144      68      56      63