Reproduction of the Original Problem/results-log/S1-15/S1-5-15-3-s.log
CPXPARAM_Read_DataCheck                          1
Found incumbent of value 0.000000 after 0.00 sec. (0.04 ticks)
Tried aggregator 1 time.
MIP Presolve modified 1 coefficients.
Reduced MIP has 146 rows, 1515 columns, and 7545 nonzeros.
Reduced MIP has 1515 binaries, 0 generals, 0 SOSs, and 0 indicators.
Presolve time = 0.02 sec. (2.94 ticks)
Probing time = 0.00 sec. (1.91 ticks)
Tried aggregator 1 time.
Reduced MIP has 146 rows, 1515 columns, and 7545 nonzeros.
Reduced MIP has 1515 binaries, 0 generals, 0 SOSs, and 0 indicators.
Presolve time = 0.00 sec. (3.50 ticks)
Probing time = 0.00 sec. (1.91 ticks)
Clique table members: 1530.
MIP emphasis: balance optimality and feasibility.
MIP search method: dynamic search.
Parallel mode: deterministic, using up to 4 threads.
Root relaxation solution time = 0.02 sec. (5.22 ticks)

        Nodes                                         Cuts/
   Node  Left     Objective  IInf  Best Integer    Best Bound    ItCnt     Gap

*     0+    0                            0.0000     9283.0000              --- 
*     0+    0                         1620.0000     9283.0000           473.02%
      0     0     2511.3700    15     1620.0000     2511.3700      270   55.02%
      0     0     2047.6678   151     1620.0000     Cuts: 148      624   26.40%
*     0+    0                         1792.0000     2047.6678            14.27%
      0     0     1874.5138   190     1792.0000     Cuts: 150      960    4.60%
      0     0     1840.2222   221     1792.0000     Cuts: 136     1170    2.69%
      0     0     1833.6302   267     1792.0000      Cuts: 56     1290    2.32%
      0     0     1831.9664   233     1792.0000      Cuts: 60     1337    2.23%
      0     0     1830.7781   298     1792.0000      Cuts: 33     1394    2.16%
*     0+    0                         1821.0000     1830.7781             0.54%
      0     0     1829.9790   232     1821.0000      Cuts: 24     1427    0.49%

Repeating presolve.
Tried aggregator 1 time.
MIP Presolve eliminated 1 rows and 473 columns.
MIP Presolve modified 14 coefficients.
Reduced MIP has 145 rows, 1042 columns, and 5110 nonzeros.
Reduced MIP has 1042 binaries, 0 generals, 0 SOSs, and 0 indicators.
Presolve time = 0.00 sec. (2.20 ticks)
Probing time = 0.00 sec. (1.05 ticks)
Tried aggregator 1 time.
Reduced MIP has 145 rows, 1042 columns, and 5110 nonzeros.
Reduced MIP has 1042 binaries, 0 generals, 0 SOSs, and 0 indicators.
Presolve time = 0.02 sec. (2.37 ticks)
Represolve time = 0.02 sec. (10.59 ticks)
Probing time = 0.00 sec. (1.05 ticks)
Clique table members: 986.
MIP emphasis: balance optimality and feasibility.
MIP search method: dynamic search.
Parallel mode: deterministic, using up to 4 threads.
Root relaxation solution time = 0.03 sec. (22.70 ticks)

        Nodes                                         Cuts/
   Node  Left     Objective  IInf  Best Integer    Best Bound    ItCnt     Gap

*     0+    0                         1821.0000     1829.7965             0.48%
      0     0     1829.9790   229     1821.0000     1829.7965     2107    0.48%
      0     0     1829.3759   259     1821.0000      Cuts: 20     2137    0.40%
      0     0     1829.0246   268     1821.0000      Cuts: 16     2172    0.40%
      0     0     1828.8589   260     1821.0000      Cuts: 20     2205    0.40%
      0     0     1828.6960   271     1821.0000      Cuts: 10     2237    0.40%
      0     0     1828.4813   270     1821.0000      Cuts: 11     2273    0.40%
      0     0     1828.3783   276     1821.0000      Cuts: 14     2300    0.40%
*     0+    0                         1824.0000     1828.2107             0.23%
      0     0        cutoff           1824.0000     1824.0000     2319    0.00%
Elapsed time = 0.86 sec. (431.76 ticks, tree = 0.01 MB, solutions = 5)

Clique cuts applied:  182
Cover cuts applied:  35
Implied bound cuts applied:  13
Flow cuts applied:  10
Mixed integer rounding cuts applied:  34
Zero-half cuts applied:  20

Root node processing (before b&c):
  Real time             =    0.86 sec. (431.88 ticks)
Parallel b&c, 4 threads:
  Real time             =    0.00 sec. (0.00 ticks)
  Sync time (average)   =    0.00 sec.
  Wait time (average)   =    0.00 sec.
                          ------------
Total (root+branch&cut) =    0.86 sec. (431.88 ticks)
